20
1 0 10
2 0 10
2 1 1
3 0 3
3 1 3
3 2 9
4 0 3
4 1 9
4 2 4
4 3 4
5 0 8
5 1 6
5 2 4
5 3 9
5 4 7
6 0 3
6 1 7
6 2 5
6 3 9
6 4 9
6 5 3
7 0 10
7 1 7
7 2 5
7 3 9
7 4 4
7 5 3
7 6 9
8 0 8
8 1 10
8 2 1
8 3 2
8 4 9
8 5 7
8 6 7
8 7 5
9 0 2
9 1 8
9 2 1
9 3 6
9 4 3
9 5 4
9 6 6
9 7 10
9 8 10
10 0 3
10 1 4
10 2 4
10 3 1
10 4 2
10 5 7
10 6 5
10 7 6
10 8 10
10 9 9
11 0 6
11 1 5
11 2 2
11 3 2
11 4 4
11 5 2
11 6 3
11 7 10
11 8 10
11 9 5
11 10 10
12 0 9
12 1 1
12 2 2
12 3 6
12 4 2
12 5 5
12 6 9
12 7 4
12 8 3
12 9 7
12 10 6
12 11 5
13 0 9
13 1 9
13 2 1
13 3 7
13 4 7
13 5 3
13 6 5
13 7 7
13 8 9
13 9 5
13 10 6
13 11 4
13 12 7
14 0 2
14 1 10
14 2 9
14 3 2
14 4 2
14 5 2
14 6 2
14 7 4
14 8 8
14 9 5
14 10 4
14 11 6
14 12 9
14 13 5
15 0 6
15 1 4
15 2 3
15 3 7
15 4 6
15 5 6
15 6 8
15 7 7
15 8 4
15 9 10
15 10 5
15 11 6
15 12 3
15 13 5
15 14 9
16 0 1
16 1 9
16 2 7
16 3 6
16 4 1
16 5 4
16 6 10
16 7 2
16 8 7
16 9 2
16 10 7
16 11 4
16 12 6
16 13 10
16 14 2
16 15 10
17 0 2
17 1 9
17 2 2
17 3 6
17 4 8
17 5 10
17 6 8
17 7 2
17 8 6
17 9 10
17 10 8
17 11 8
17 12 10
17 13 3
17 14 2
17 15 6
17 16 4
18 0 6
18 1 8
18 2 2
18 3 6
18 4 9
18 5 2
18 6 1
18 7 3
18 8 9
18 9 7
18 10 9
18 11 5
18 12 7
18 13 7
18 14 4
18 15 8
18 16 9
18 17 8
19 0 7
19 1 3
19 2 10
19 3 6
19 4 2
19 5 9
19 6 1
19 7 5
19 8 5
19 9 6
19 10 7
19 11 3
19 12 9
19 13 2
19 14 6
19 15 5
19 16 6
19 17 3
19 18 8
